Route #1: 34 36 39 38 37 35 31 33 32
Route #2: 47 49 52 50 51 48 45 46 44 40 41 42 43
Route #3: 57 55 54 53 56 58 60 59
Route #4: 67 65 63 74 62 66
Route #5: 69 68 64 61 72 80 79 77 73 70 71 76 78 81
Route #6: 90 87 86 83 82 84 85 88 89 91
Route #7: 99 100 97 93 92 94 95 96 98
Route #8: 75 1 2 4 6 9 11 8 7 3 5
Route #9: 13 17 18 19 15 16 14 12 10
Route #10: 21 22 23 26 28 30 29 27 25 24 20
Cost 819.558
